NAME : ClusterId_251 
COMMENT : (Gillet and Johnson) 
TYPE : CVRP 
DIMENSION : 5 
EDGE_WEIGHT_TYPE : EUC_2D 
CAPACITY : 500 
NODE_COORD_SECTION 
251 33 -33 
209 26 -37 
247 17 -35 
200 38 -24 
201 50 -37 
DEMAND_SECTION 
251 100
209 19
247 65
200 3
201 11
DEPOT_SECTION 
251
 -1
EOF